NAME: eilA76_20
COMMENT: 860.11
VEHICLE: 10
TIME: 94.8693
DIMENSION: 76
CAPACITY: 140
DELIVERY_SECTION
0 0 0
1 1 14
2 1 1.4
3 1 1.4
4 1 1.2
5 2 14
6 2 7
7 2 1.4
8 2 1.4
9 2 1.4
10 2 0.8
11 3 7
12 3 1.4
13 3 1.4
14 3 1.2
15 4 28
16 4 1.4
17 4 0.6
18 5 14
19 5 7
20 6 14
21 6 1.4
22 6 1.4
23 6 1.4
24 6 0.8
25 7 14
26 7 1
27 8 14
28 8 1.4
29 8 0.6
30 9 28
31 9 1
32 10 14
33 10 7
34 10 1.4
35 10 1.4
36 10 1.4
37 10 0.8
38 11 28
39 11 7
40 11 1.4
41 11 0.6
42 12 14
43 12 1.4
44 12 0.6
45 13 7
46 13 1.4
47 13 1.4
48 13 1.4
49 13 0.8
50 14 28
51 14 1.4
52 14 1.4
53 14 0.2
54 15 7
55 15 1
56 16 14
57 16 1.4
58 16 1.4
59 16 1.4
60 16 0.8
61 17 14
62 17 1.4
63 17 1.4
64 17 1.4
65 17 1.4
66 17 0.4
67 18 7
68 18 1.4
69 18 1.4
70 18 1.4
71 18 1.4
72 18 0.4
73 19 14
74 19 1
75 20 14
76 20 7
77 20 1
78 21 28
79 22 7
80 22 1.4
81 22 1.4
82 22 1.4
83 22 0.8
84 23 1.4
85 23 1.4
86 23 1.4
87 23 1.4
88 23 0.4
89 24 14
90 24 7
91 24 1.4
92 24 1.4
93 24 1.4
94 24 1.4
95 24 0.4
96 25 14
97 26 14
98 26 1.4
99 26 1.4
100 26 1.2
101 27 14
102 27 1.4
103 27 1.4
104 27 0.2
105 28 28
106 28 1
107 29 7
108 29 1.4
109 29 1.4
110 29 1.4
111 29 1.4
112 29 0.4
113 30 14
114 30 7
115 30 1
116 31 14
117 31 7
118 31 1.4
119 31 1.4
120 31 1.2
121 32 28
122 33 14
123 33 7
124 33 1.4
125 33 1.4
126 33 1.4
127 33 1.4
128 33 0.4
129 34 14
130 34 1.4
131 34 1.4
132 34 1.4
133 34 0.8
134 35 7
135 35 1.4
136 35 1.4
137 35 0.2
138 36 7
139 36 1.4
140 36 1.4
141 36 1.4
142 36 0.8
143 37 14
144 38 14
145 38 7
146 38 1.4
147 38 1.4
148 38 0.2
149 39 14
150 39 1.4
151 39 0.6
152 40 28
153 40 1.4
154 40 1.4
155 40 1.4
156 40 0.8
157 41 14
158 41 1
159 42 7
160 42 1.4
161 42 1.4
162 42 1.2
163 43 14
164 43 1.4
165 43 1.4
166 43 1.2
167 44 14
168 44 1.4
169 44 1.4
170 44 0.2
171 45 14
172 45 7
173 46 14
174 46 7
175 46 1.4
176 46 1.4
177 46 1.4
178 46 1.4
179 46 0.4
180 47 14
181 47 1.4
182 47 1.4
183 47 1.4
184 47 0.8
185 48 14
186 48 1.4
187 48 1.4
188 48 1.4
189 48 1.4
190 48 0.4
191 49 1.4
192 49 1.4
193 49 1.4
194 49 0.8
195 50 14
196 50 7
197 50 1
198 51 7
199 51 1.4
200 51 1.4
201 51 1.4
202 51 0.8
203 52 14
204 52 1.4
205 52 1.4
206 52 1.4
207 52 0.8
208 53 14
209 53 7
210 53 1
211 54 14
212 54 1.4
213 54 0.6
214 55 7
215 56 14
216 56 7
217 56 1.4
218 56 1.4
219 56 1.4
220 56 0.8
221 57 14
222 58 14
223 58 7
224 59 14
225 59 7
226 59 1.4
227 59 1.4
228 59 0.2
229 60 7
230 60 1.4
231 60 1.4
232 60 1.4
233 60 1.4
234 60 0.4
235 61 14
236 61 1
237 62 14
238 62 1.4
239 62 1.4
240 62 1.2
241 63 7
242 63 1.4
243 63 1.4
244 63 1.2
245 64 28
246 65 7
247 65 1.4
248 65 0.6
249 66 28
250 66 7
251 66 1.4
252 66 0.6
253 67 28
254 67 1.4
255 67 0.6
256 68 7
257 68 1.4
258 68 1.4
259 68 0.2
260 69 7
261 69 1
262 70 7
263 70 1.4
264 70 1.4
265 70 1.2
266 71 1.4
267 71 1.4
268 71 0.2
269 72 1
270 73 1.4
271 73 1.4
272 73 1.4
273 73 1.4
274 73 0.4
275 74 7
276 74 1.4
277 74 1.4
278 74 0.2
279 75 14
280 75 1.4
281 75 1.4
282 75 1.4
283 75 1.4
284 75 0.4
PICKUP_SECTION
NODE_SECTION
40 40

22 22

36 26

21 45

45 35

55 20

33 34

50 50

55 45

26 59

40 66

55 65

35 51

62 35

62 57

62 24

21 36

33 44

 9 56

62 48

66 14

44 13

26 13

11 28

 7 43

17 64

41 46

55 34

35 16

52 26

43 26

31 76

22 53

26 29

50 40

55 50

54 10

60 15

47 66

30 60

30 50

12 17

15 14

16 19

21 48

50 30

51 42

50 15

48 21

12 38

15 56

29 39

54 38

55 57

67 41

10 70

 6 25

65 27

40 60

70 64

64  4

36  6

30 20

20 30

15  5

50 70

57 72

45 42

38 33

50  4

66  8

59  5

35 60

27 24

40 20

40 37
DISTANCE_SECTION
DEPOT_SECTION
0
EOF